27719
0 0 1 0 1 0 0 0 1 0 0 1 0 1 0 1 1 0 1 1 1 0 0 1 1 1 0 0 1 0 
18 19 2 24 2 11 15 28 18 28 4 28 13 13 28 18 13 20 24 24 18 16 23 24 23 18 24 19 4 2 19 19 4 16 28 19 20 8 24 16 18 8 19 4 8 19 13 2 19 20 24 16 24 16 8 19 11 8 18 25 4 2 18 8 13 11 23 19 28 25 18 11 19 8 23 23 20 23 8 16 23 2 8 25 4 13 19 2 24 25 28 19 25 25 2 13 11 11 2 28 28 15 25 18 4 24 4 24 16 13 19 4 18 11 11 8 28 25 28 8 20 11 28 19 4 16 2 11 19 28 28 24 25 20 23 8 13 13 28 20 11 18 11 11 25 2 24 15 18 25 24 28 23 28 8 11 2 15 13 13 13 24 23 24 23 24 23 4 13 15 23 20 19 20 4 2 2 20 4 20 2 15 2 19 11 8 28 23 24 2 2 2 19 4 25 11 25 15 23 19 

Total Run Time: 347366 ms.
